
  32    1
  10

   0   0   2 2 3 
   4   5   4 11 9 8 4 
   8   7   3 9 5 4 
   5  10   2 7 6 
   9   6   1 6 
  10  10   3 13 12 10 
   7   9   3 14 13 10 
   6   6   3 13 12 10 
   5  10   3 19 12 10 
   7   6   3 17 16 15 
   1   9   3 20 19 14 
  10   6   2 16 15 
   7   6   4 23 21 20 19 
   6   9   3 26 21 18 
   6   6   2 20 18 
   3   9   4 26 25 23 21 
   3   8   5 26 25 24 23 22 
   9   7   4 25 24 23 22 
   8  10   5 31 30 27 25 24 
   3   9   4 31 27 26 24 
   9  10   2 24 22 
   3  10   4 31 30 29 27 
   3   4   3 31 30 27 
   4   8   2 29 28 
   7   8   2 29 28 
   3  10   2 30 29 
   8  10   1 28 
   8   8   1 32
   6   7   1 32
   3   8   1 32
   4   9   1 32
   0   0   0 
